NAME : local_0
TYPE : ATSP
DIMENSION : 5
EDGE_WEIGHT_TYPE : EXPLICIT
EDGE_WEIGHT_FORMAT : FULL_MATRIX
EDGE_WEIGHT_SECTION
0 10000000 10000000 10000000 661 
0 0 10000000 611 727 
0 10000000 0 746 971 
0 611 746 0 803 
0 10000000 10000000 10000000 0 
EOF